name="r17";
nr_vertices=213;
nr_edges=2392;
neighborhoods=[{1,2,3,4,5,6,7,8,9,10,11,12,13,14,15,27,47,56,67,83,98,109,121,136,148,160,171,185},{0,2,3,4,5,6,7,8,9,10,11,12,13,14,16,28,48,57,74,84,110,122,137,149,200},{0,1,3,4,5,6,7,8,9,10,11,12,13,14,17,29,37,85,172,186,201},{0,1,2,4,5,6,7,8,9,10,11,12,13,14,75,111,123,138,173,187},{0,1,2,3,5,6,7,8,9,10,11,12,13,14,30,38,49,58,86,99,124,150,161,188},{0,1,2,3,4,6,7,8,9,10,11,12,13,14,32,39,60,77,88,101,126,140,151,163,174,190,203},{0,1,2,3,4,5,7,8,9,10,11,12,13,14,19,40,69,89,102,113,127,141,175,191},{0,1,2,3,4,5,6,8,9,10,11,12,13,14,20,33,41,61,78,90,103,128,142,164,176,204},{0,1,2,3,4,5,6,7,9,10,11,12,13,14,21,42,50,62,114,143,152,165,205},{0,1,2,3,4,5,6,7,8,10,11,12,13,14,22,43,63,79,91,104,115,129,144,153,177,192,206},{0,1,2,3,4,5,6,7,8,9,11,12,13,14,23,44,51,93,131,145,155,167,179,194,208},{0,1,2,3,4,5,6,7,8,9,10,12,13,14,24,34,52,80,94,117,132,146,156,168,180,195},{0,1,2,3,4,5,6,7,8,9,10,11,13,14,36,45,65,71,96,119,133,157,169,182,197,210},{0,1,2,3,4,5,6,7,8,9,10,11,12,14,54,66,72,81,97,107,134,158,170,183,198,211},{0,1,2,3,4,5,6,7,8,9,10,11,12,13,26,46,55,73,82,108,120,135,159,184,199,212},{0,16,17,18,19,20,21,22,23,24,25,26,27,47,56,67,83,98,109,121,136,148,160,171,185},{1,15,17,18,19,20,21,22,23,24,25,26,28,48,57,74,84,110,122,137,149,200},{2,15,16,18,19,20,21,22,23,24,25,26,29,37,85,172,186,201},{15,16,17,19,20,21,22,23,24,25,26,31,59,68,76,87,100,112,125,139,162,189,202},{6,15,16,17,18,20,21,22,23,24,25,26,40,69,89,102,113,127,141,175,191},{7,15,16,17,18,19,21,22,23,24,25,26,33,41,61,78,90,103,128,142,164,176,204},{8,15,16,17,18,19,20,22,23,24,25,26,42,50,62,114,143,152,165,205},{9,15,16,17,18,19,20,21,23,24,25,26,43,63,79,91,104,115,129,144,153,177,192,206},{10,15,16,17,18,19,20,21,22,24,25,26,44,51,93,131,145,155,167,179,194,208},{11,15,16,17,18,19,20,21,22,23,25,26,34,52,80,94,117,132,146,156,168,180,195},{15,16,17,18,19,20,21,22,23,24,26,35,53,95,106,118,147,181,196,209},{14,15,16,17,18,19,20,21,22,23,24,25,46,55,73,82,108,120,135,159,184,199,212},{0,15,28,29,30,31,32,33,34,35,36,47,56,67,83,98,109,121,136,148,160,171,185},{1,16,27,29,30,31,32,33,34,35,36,48,57,74,84,110,122,137,149,200},{2,17,27,28,30,31,32,33,34,35,36,37,85,172,186,201},{4,27,28,29,31,32,33,34,35,36,38,49,58,86,99,124,150,161,188},{18,27,28,29,30,32,33,34,35,36,59,68,76,87,100,112,125,139,162,189,202},{5,27,28,29,30,31,33,34,35,36,39,60,77,88,101,126,140,151,163,174,190,203},{7,20,27,28,29,30,31,32,34,35,36,41,61,78,90,103,128,142,164,176,204},{11,24,27,28,29,30,31,32,33,35,36,52,80,94,117,132,146,156,168,180,195},{25,27,28,29,30,31,32,33,34,36,53,95,106,118,147,181,196,209},{12,27,28,29,30,31,32,33,34,35,45,65,71,96,119,133,157,169,182,197,210},{2,17,29,38,39,40,41,42,43,44,45,46,85,172,186,201},{4,30,37,39,40,41,42,43,44,45,46,49,58,86,99,124,150,161,188},{5,32,37,38,40,41,42,43,44,45,46,60,77,88,101,126,140,151,163,174,190,203},{6,19,37,38,39,41,42,43,44,45,46,69,89,102,113,127,141,175,191},{7,20,33,37,38,39,40,42,43,44,45,46,61,78,90,103,128,142,164,176,204},{8,21,37,38,39,40,41,43,44,45,46,50,62,114,143,152,165,205},{9,22,37,38,39,40,41,42,44,45,46,63,79,91,104,115,129,144,153,177,192,206},{10,23,37,38,39,40,41,42,43,45,46,51,93,131,145,155,167,179,194,208},{12,36,37,38,39,40,41,42,43,44,46,65,71,96,119,133,157,169,182,197,210},{14,26,37,38,39,40,41,42,43,44,45,55,73,82,108,120,135,159,184,199,212},{0,15,27,48,49,50,51,52,53,54,55,56,67,83,98,109,121,136,148,160,171,185},{1,16,28,47,49,50,51,52,53,54,55,57,74,84,110,122,137,149,200},{4,30,38,47,48,50,51,52,53,54,55,58,86,99,124,150,161,188},{8,21,42,47,48,49,51,52,53,54,55,62,114,143,152,165,205},{10,23,44,47,48,49,50,52,53,54,55,93,131,145,155,167,179,194,208},{11,24,34,47,48,49,50,51,53,54,55,80,94,117,132,146,156,168,180,195},{25,35,47,48,49,50,51,52,54,55,95,106,118,147,181,196,209},{13,47,48,49,50,51,52,53,55,66,72,81,97,107,134,158,170,183,198,211},{14,26,46,47,48,49,50,51,52,53,54,73,82,108,120,135,159,184,199,212},{0,15,27,47,57,58,59,60,61,62,63,64,65,66,67,83,98,109,121,136,148,160,171,185},{1,16,28,48,56,58,59,60,61,62,63,64,65,66,74,84,110,122,137,149,200},{4,30,38,49,56,57,59,60,61,62,63,64,65,66,86,99,124,150,161,188},{18,31,56,57,58,60,61,62,63,64,65,66,68,76,87,100,112,125,139,162,189,202},{5,32,39,56,57,58,59,61,62,63,64,65,66,77,88,101,126,140,151,163,174,190,203},{7,20,33,41,56,57,58,59,60,62,63,64,65,66,78,90,103,128,142,164,176,204},{8,21,42,50,56,57,58,59,60,61,63,64,65,66,114,143,152,165,205},{9,22,43,56,57,58,59,60,61,62,64,65,66,79,91,104,115,129,144,153,177,192,206},{56,57,58,59,60,61,62,63,65,66,70,92,105,116,130,154,166,178,193,207},{12,36,45,56,57,58,59,60,61,62,63,64,66,71,96,119,133,157,169,182,197,210},{13,54,56,57,58,59,60,61,62,63,64,65,72,81,97,107,134,158,170,183,198,211},{0,15,27,47,56,68,69,70,71,72,73,83,98,109,121,136,148,160,171,185},{18,31,59,67,69,70,71,72,73,76,87,100,112,125,139,162,189,202},{6,19,40,67,68,70,71,72,73,89,102,113,127,141,175,191},{64,67,68,69,71,72,73,92,105,116,130,154,166,178,193,207},{12,36,45,65,67,68,69,70,72,73,96,119,133,157,169,182,197,210},{13,54,66,67,68,69,70,71,73,81,97,107,134,158,170,183,198,211},{14,26,46,55,67,68,69,70,71,72,82,108,120,135,159,184,199,212},{1,16,28,48,57,75,76,77,78,79,80,81,82,84,110,122,137,149,200},{3,74,76,77,78,79,80,81,82,111,123,138,173,187},{18,31,59,68,74,75,77,78,79,80,81,82,87,100,112,125,139,162,189,202},{5,32,39,60,74,75,76,78,79,80,81,82,88,101,126,140,151,163,174,190,203},{7,20,33,41,61,74,75,76,77,79,80,81,82,90,103,128,142,164,176,204},{9,22,43,63,74,75,76,77,78,80,81,82,91,104,115,129,144,153,177,192,206},{11,24,34,52,74,75,76,77,78,79,81,82,94,117,132,146,156,168,180,195},{13,54,66,72,74,75,76,77,78,79,80,82,97,107,134,158,170,183,198,211},{14,26,46,55,73,74,75,76,77,78,79,80,81,108,120,135,159,184,199,212},{0,15,27,47,56,67,84,85,86,87,88,89,90,91,92,93,94,95,96,97,98,109,121,136,148,160,171,185},{1,16,28,48,57,74,83,85,86,87,88,89,90,91,92,93,94,95,96,97,110,122,137,149,200},{2,17,29,37,83,84,86,87,88,89,90,91,92,93,94,95,96,97,172,186,201},{4,30,38,49,58,83,84,85,87,88,89,90,91,92,93,94,95,96,97,99,124,150,161,188},{18,31,59,68,76,83,84,85,86,88,89,90,91,92,93,94,95,96,97,100,112,125,139,162,189,202},{5,32,39,60,77,83,84,85,86,87,89,90,91,92,93,94,95,96,97,101,126,140,151,163,174,190,203},{6,19,40,69,83,84,85,86,87,88,90,91,92,93,94,95,96,97,102,113,127,141,175,191},{7,20,33,41,61,78,83,84,85,86,87,88,89,91,92,93,94,95,96,97,103,128,142,164,176,204},{9,22,43,63,79,83,84,85,86,87,88,89,90,92,93,94,95,96,97,104,115,129,144,153,177,192,206},{64,70,83,84,85,86,87,88,89,90,91,93,94,95,96,97,105,116,130,154,166,178,193,207},{10,23,44,51,83,84,85,86,87,88,89,90,91,92,94,95,96,97,131,145,155,167,179,194,208},{11,24,34,52,80,83,84,85,86,87,88,89,90,91,92,93,95,96,97,117,132,146,156,168,180,195},{25,35,53,83,84,85,86,87,88,89,90,91,92,93,94,96,97,106,118,147,181,196,209},{12,36,45,65,71,83,84,85,86,87,88,89,90,91,92,93,94,95,97,119,133,157,169,182,197,210},{13,54,66,72,81,83,84,85,86,87,88,89,90,91,92,93,94,95,96,107,134,158,170,183,198,211},{0,15,27,47,56,67,83,99,100,101,102,103,104,105,106,107,108,109,121,136,148,160,171,185},{4,30,38,49,58,86,98,100,101,102,103,104,105,106,107,108,124,150,161,188},{18,31,59,68,76,87,98,99,101,102,103,104,105,106,107,108,112,125,139,162,189,202},{5,32,39,60,77,88,98,99,100,102,103,104,105,106,107,108,126,140,151,163,174,190,203},{6,19,40,69,89,98,99,100,101,103,104,105,106,107,108,113,127,141,175,191},{7,20,33,41,61,78,90,98,99,100,101,102,104,105,106,107,108,128,142,164,176,204},{9,22,43,63,79,91,98,99,100,101,102,103,105,106,107,108,115,129,144,153,177,192,206},{64,70,92,98,99,100,101,102,103,104,106,107,108,116,130,154,166,178,193,207},{25,35,53,95,98,99,100,101,102,103,104,105,107,108,118,147,181,196,209},{13,54,66,72,81,97,98,99,100,101,102,103,104,105,106,108,134,158,170,183,198,211},{14,26,46,55,73,82,98,99,100,101,102,103,104,105,106,107,120,135,159,184,199,212},{0,15,27,47,56,67,83,98,110,111,112,113,114,115,116,117,118,119,120,121,136,148,160,171,185},{1,16,28,48,57,74,84,109,111,112,113,114,115,116,117,118,119,120,122,137,149,200},{3,75,109,110,112,113,114,115,116,117,118,119,120,123,138,173,187},{18,31,59,68,76,87,100,109,110,111,113,114,115,116,117,118,119,120,125,139,162,189,202},{6,19,40,69,89,102,109,110,111,112,114,115,116,117,118,119,120,127,141,175,191},{8,21,42,50,62,109,110,111,112,113,115,116,117,118,119,120,143,152,165,205},{9,22,43,63,79,91,104,109,110,111,112,113,114,116,117,118,119,120,129,144,153,177,192,206},{64,70,92,105,109,110,111,112,113,114,115,117,118,119,120,130,154,166,178,193,207},{11,24,34,52,80,94,109,110,111,112,113,114,115,116,118,119,120,132,146,156,168,180,195},{25,35,53,95,106,109,110,111,112,113,114,115,116,117,119,120,147,181,196,209},{12,36,45,65,71,96,109,110,111,112,113,114,115,116,117,118,120,133,157,169,182,197,210},{14,26,46,55,73,82,108,109,110,111,112,113,114,115,116,117,118,119,135,159,184,199,212},{0,15,27,47,56,67,83,98,109,122,123,124,125,126,127,128,129,130,131,132,133,134,135,136,148,160,171,185},{1,16,28,48,57,74,84,110,121,123,124,125,126,127,128,129,130,131,132,133,134,135,137,149,200},{3,75,111,121,122,124,125,126,127,128,129,130,131,132,133,134,135,138,173,187},{4,30,38,49,58,86,99,121,122,123,125,126,127,128,129,130,131,132,133,134,135,150,161,188},{18,31,59,68,76,87,100,112,121,122,123,124,126,127,128,129,130,131,132,133,134,135,139,162,189,202},{5,32,39,60,77,88,101,121,122,123,124,125,127,128,129,130,131,132,133,134,135,140,151,163,174,190,203},{6,19,40,69,89,102,113,121,122,123,124,125,126,128,129,130,131,132,133,134,135,141,175,191},{7,20,33,41,61,78,90,103,121,122,123,124,125,126,127,129,130,131,132,133,134,135,142,164,176,204},{9,22,43,63,79,91,104,115,121,122,123,124,125,126,127,128,130,131,132,133,134,135,144,153,177,192,206},{64,70,92,105,116,121,122,123,124,125,126,127,128,129,131,132,133,134,135,154,166,178,193,207},{10,23,44,51,93,121,122,123,124,125,126,127,128,129,130,132,133,134,135,145,155,167,179,194,208},{11,24,34,52,80,94,117,121,122,123,124,125,126,127,128,129,130,131,133,134,135,146,156,168,180,195},{12,36,45,65,71,96,119,121,122,123,124,125,126,127,128,129,130,131,132,134,135,157,169,182,197,210},{13,54,66,72,81,97,107,121,122,123,124,125,126,127,128,129,130,131,132,133,135,158,170,183,198,211},{14,26,46,55,73,82,108,120,121,122,123,124,125,126,127,128,129,130,131,132,133,134,159,184,199,212},{0,15,27,47,56,67,83,98,109,121,137,138,139,140,141,142,143,144,145,146,147,148,160,171,185},{1,16,28,48,57,74,84,110,122,136,138,139,140,141,142,143,144,145,146,147,149,200},{3,75,111,123,136,137,139,140,141,142,143,144,145,146,147,173,187},{18,31,59,68,76,87,100,112,125,136,137,138,140,141,142,143,144,145,146,147,162,189,202},{5,32,39,60,77,88,101,126,136,137,138,139,141,142,143,144,145,146,147,151,163,174,190,203},{6,19,40,69,89,102,113,127,136,137,138,139,140,142,143,144,145,146,147,175,191},{7,20,33,41,61,78,90,103,128,136,137,138,139,140,141,143,144,145,146,147,164,176,204},{8,21,42,50,62,114,136,137,138,139,140,141,142,144,145,146,147,152,165,205},{9,22,43,63,79,91,104,115,129,136,137,138,139,140,141,142,143,145,146,147,153,177,192,206},{10,23,44,51,93,131,136,137,138,139,140,141,142,143,144,146,147,155,167,179,194,208},{11,24,34,52,80,94,117,132,136,137,138,139,140,141,142,143,144,145,147,156,168,180,195},{25,35,53,95,106,118,136,137,138,139,140,141,142,143,144,145,146,181,196,209},{0,15,27,47,56,67,83,98,109,121,136,149,150,151,152,153,154,155,156,157,158,159,160,171,185},{1,16,28,48,57,74,84,110,122,137,148,150,151,152,153,154,155,156,157,158,159,200},{4,30,38,49,58,86,99,124,148,149,151,152,153,154,155,156,157,158,159,161,188},{5,32,39,60,77,88,101,126,140,148,149,150,152,153,154,155,156,157,158,159,163,174,190,203},{8,21,42,50,62,114,143,148,149,150,151,153,154,155,156,157,158,159,165,205},{9,22,43,63,79,91,104,115,129,144,148,149,150,151,152,154,155,156,157,158,159,177,192,206},{64,70,92,105,116,130,148,149,150,151,152,153,155,156,157,158,159,166,178,193,207},{10,23,44,51,93,131,145,148,149,150,151,152,153,154,156,157,158,159,167,179,194,208},{11,24,34,52,80,94,117,132,146,148,149,150,151,152,153,154,155,157,158,159,168,180,195},{12,36,45,65,71,96,119,133,148,149,150,151,152,153,154,155,156,158,159,169,182,197,210},{13,54,66,72,81,97,107,134,148,149,150,151,152,153,154,155,156,157,159,170,183,198,211},{14,26,46,55,73,82,108,120,135,148,149,150,151,152,153,154,155,156,157,158,184,199,212},{0,15,27,47,56,67,83,98,109,121,136,148,161,162,163,164,165,166,167,168,169,170,171,185},{4,30,38,49,58,86,99,124,150,160,162,163,164,165,166,167,168,169,170,188},{18,31,59,68,76,87,100,112,125,139,160,161,163,164,165,166,167,168,169,170,189,202},{5,32,39,60,77,88,101,126,140,151,160,161,162,164,165,166,167,168,169,170,174,190,203},{7,20,33,41,61,78,90,103,128,142,160,161,162,163,165,166,167,168,169,170,176,204},{8,21,42,50,62,114,143,152,160,161,162,163,164,166,167,168,169,170,205},{64,70,92,105,116,130,154,160,161,162,163,164,165,167,168,169,170,178,193,207},{10,23,44,51,93,131,145,155,160,161,162,163,164,165,166,168,169,170,179,194,208},{11,24,34,52,80,94,117,132,146,156,160,161,162,163,164,165,166,167,169,170,180,195},{12,36,45,65,71,96,119,133,157,160,161,162,163,164,165,166,167,168,170,182,197,210},{13,54,66,72,81,97,107,134,158,160,161,162,163,164,165,166,167,168,169,183,198,211},{0,15,27,47,56,67,83,98,109,121,136,148,160,172,173,174,175,176,177,178,179,180,181,182,183,184,185},{2,17,29,37,85,171,173,174,175,176,177,178,179,180,181,182,183,184,186,201},{3,75,111,123,138,171,172,174,175,176,177,178,179,180,181,182,183,184,187},{5,32,39,60,77,88,101,126,140,151,163,171,172,173,175,176,177,178,179,180,181,182,183,184,190,203},{6,19,40,69,89,102,113,127,141,171,172,173,174,176,177,178,179,180,181,182,183,184,191},{7,20,33,41,61,78,90,103,128,142,164,171,172,173,174,175,177,178,179,180,181,182,183,184,204},{9,22,43,63,79,91,104,115,129,144,153,171,172,173,174,175,176,178,179,180,181,182,183,184,192,206},{64,70,92,105,116,130,154,166,171,172,173,174,175,176,177,179,180,181,182,183,184,193,207},{10,23,44,51,93,131,145,155,167,171,172,173,174,175,176,177,178,180,181,182,183,184,194,208},{11,24,34,52,80,94,117,132,146,156,168,171,172,173,174,175,176,177,178,179,181,182,183,184,195},{25,35,53,95,106,118,147,171,172,173,174,175,176,177,178,179,180,182,183,184,196,209},{12,36,45,65,71,96,119,133,157,169,171,172,173,174,175,176,177,178,179,180,181,183,184,197,210},{13,54,66,72,81,97,107,134,158,170,171,172,173,174,175,176,177,178,179,180,181,182,184,198,211},{14,26,46,55,73,82,108,120,135,159,171,172,173,174,175,176,177,178,179,180,181,182,183,199,212},{0,15,27,47,56,67,83,98,109,121,136,148,160,171,186,187,188,189,190,191,192,193,194,195,196,197,198,199},{2,17,29,37,85,172,185,187,188,189,190,191,192,193,194,195,196,197,198,199,201},{3,75,111,123,138,173,185,186,188,189,190,191,192,193,194,195,196,197,198,199},{4,30,38,49,58,86,99,124,150,161,185,186,187,189,190,191,192,193,194,195,196,197,198,199},{18,31,59,68,76,87,100,112,125,139,162,185,186,187,188,190,191,192,193,194,195,196,197,198,199,202},{5,32,39,60,77,88,101,126,140,151,163,174,185,186,187,188,189,191,192,193,194,195,196,197,198,199,203},{6,19,40,69,89,102,113,127,141,175,185,186,187,188,189,190,192,193,194,195,196,197,198,199},{9,22,43,63,79,91,104,115,129,144,153,177,185,186,187,188,189,190,191,193,194,195,196,197,198,199,206},{64,70,92,105,116,130,154,166,178,185,186,187,188,189,190,191,192,194,195,196,197,198,199,207},{10,23,44,51,93,131,145,155,167,179,185,186,187,188,189,190,191,192,193,195,196,197,198,199,208},{11,24,34,52,80,94,117,132,146,156,168,180,185,186,187,188,189,190,191,192,193,194,196,197,198,199},{25,35,53,95,106,118,147,181,185,186,187,188,189,190,191,192,193,194,195,197,198,199,209},{12,36,45,65,71,96,119,133,157,169,182,185,186,187,188,189,190,191,192,193,194,195,196,198,199,210},{13,54,66,72,81,97,107,134,158,170,183,185,186,187,188,189,190,191,192,193,194,195,196,197,199,211},{14,26,46,55,73,82,108,120,135,159,184,185,186,187,188,189,190,191,192,193,194,195,196,197,198,212},{1,16,28,48,57,74,84,110,122,137,149,201,202,203,204,205,206,207,208,209,210,211,212},{2,17,29,37,85,172,186,200,202,203,204,205,206,207,208,209,210,211,212},{18,31,59,68,76,87,100,112,125,139,162,189,200,201,203,204,205,206,207,208,209,210,211,212},{5,32,39,60,77,88,101,126,140,151,163,174,190,200,201,202,204,205,206,207,208,209,210,211,212},{7,20,33,41,61,78,90,103,128,142,164,176,200,201,202,203,205,206,207,208,209,210,211,212},{8,21,42,50,62,114,143,152,165,200,201,202,203,204,206,207,208,209,210,211,212},{9,22,43,63,79,91,104,115,129,144,153,177,192,200,201,202,203,204,205,207,208,209,210,211,212},{64,70,92,105,116,130,154,166,178,193,200,201,202,203,204,205,206,208,209,210,211,212},{10,23,44,51,93,131,145,155,167,179,194,200,201,202,203,204,205,206,207,209,210,211,212},{25,35,53,95,106,118,147,181,196,200,201,202,203,204,205,206,207,208,210,211,212},{12,36,45,65,71,96,119,133,157,169,182,197,200,201,202,203,204,205,206,207,208,209,211,212},{13,54,66,72,81,97,107,134,158,170,183,198,200,201,202,203,204,205,206,207,208,209,210,212},{14,26,46,55,73,82,108,120,135,159,184,199,200,201,202,203,204,205,206,207,208,209,210,211}];
weights=[433,688,697,263,451,437,574,636,313,609,672,470,439,213,493,697,240,283,313,293,510,594,611,700,598,452,621,348,610,615,634,412,340,640,683,427,429,413,681,341,396,407,564,611,514,634,551,201,381,218,648,617,320,366,606,468,652,504,213,417,465,396,365,644,227,565,314,479,426,526,470,235,468,385,441,355,539,256,544,411,535,324,293,212,415,552,575,332,350,565,359,338,350,670,247,613,515,227,233,509,258,321,589,605,224,377,229,593,242,478,545,552,253,508,230,250,278,214,207,332,453,319,502,600,601,365,556,360,663,334,475,378,314,386,289,538,325,629,385,445,392,478,558,551,313,608,386,598,674,258,510,580,544,539,662,589,461,275,694,299,384,539,265,390,213,378,408,205,672,642,593,470,504,269,531,382,241,676,439,573,366,265,549,371,367,430,248,429,501,430,255,226,318,429,603,647,610,636,563,233,616,535,606,625,507,356,368,558,593,287,406,256,397];
